(benchmark gametime
:status unknown
:logic QF_AUFBV
:extrafuns ((gtINDEX109  BitVec[32]))
:extrafuns ((gtFIELD__bitsForTID0__gtAGG____anonstruct_D_Work_4  Array[32:32]))
:extrafuns ((gtINDEX110  BitVec[32]))
:extrafuns ((gtAGG__rtDWork  BitVec[32]))
:extrafuns ((gtINDEX107  BitVec[32]))
:extrafuns ((gtINDEX108  BitVec[32]))
:extrafuns ((gtINDEX105  BitVec[32]))
:extrafuns ((gtINDEX106  BitVec[32]))
:extrafuns ((gtINDEX103  BitVec[32]))
:extrafuns ((gtINDEX104  BitVec[32]))
:extrafuns ((gtINDEX102  BitVec[32]))
:extrafuns ((gtINDEX101  BitVec[32]))
:extrafuns ((gtINDEX100  BitVec[32]))
:extrafuns ((gtINDEX99  BitVec[32]))
:extrafuns ((gtINDEX97  BitVec[32]))
:extrafuns ((gtINDEX98  BitVec[32]))
:extrafuns ((gtINDEX95  BitVec[32]))
:extrafuns ((gtINDEX96  BitVec[32]))
:extrafuns ((gtINDEX94  BitVec[32]))
:extrafuns ((gtINDEX92  BitVec[32]))
:extrafuns ((gtINDEX93  BitVec[32]))
:extrafuns ((gtINDEX90  BitVec[32]))
:extrafuns ((gtINDEX91  BitVec[32]))
:extrafuns ((gtINDEX89  BitVec[32]))
:extrafuns ((gtINDEX88  BitVec[32]))
:extrafuns ((gtINDEX86  BitVec[32]))
:extrafuns ((gtINDEX87  BitVec[32]))
:extrafuns ((gtINDEX84  BitVec[32]))
:extrafuns ((gtINDEX85  BitVec[32]))
:extrafuns ((gtINDEX82  BitVec[32]))
:extrafuns ((gtINDEX83  BitVec[32]))
:extrafuns ((gtINDEX81  BitVec[32]))
:extrafuns ((gtINDEX79  BitVec[32]))
:extrafuns ((gtINDEX80  BitVec[32]))
:extrafuns ((gtINDEX77  BitVec[32]))
:extrafuns ((gtINDEX78  BitVec[32]))
:extrafuns ((gtINDEX75  BitVec[32]))
:extrafuns ((gtINDEX76  BitVec[32]))
:extrafuns ((gtINDEX74  BitVec[32]))
:extrafuns ((gtINDEX72  BitVec[32]))
:extrafuns ((gtINDEX73  BitVec[32]))
:extrafuns ((gtINDEX70  BitVec[32]))
:extrafuns ((gtINDEX71  BitVec[32]))
:extrafuns ((gtINDEX68  BitVec[32]))
:extrafuns ((gtINDEX69  BitVec[32]))
:extrafuns ((gtINDEX67  BitVec[32]))
:extrafuns ((gtINDEX65  BitVec[32]))
:extrafuns ((gtINDEX66  BitVec[32]))
:extrafuns ((gtINDEX64  BitVec[32]))
:extrafuns ((gtINDEX63  BitVec[32]))
:extrafuns ((gtINDEX61  BitVec[32]))
:extrafuns ((gtINDEX62  BitVec[32]))
:extrafuns ((gtINDEX59  BitVec[32]))
:extrafuns ((gtINDEX60  BitVec[32]))
:extrafuns ((gtINDEX58  BitVec[32]))
:extrafuns ((gtINDEX57  BitVec[32]))
:extrafuns ((gtINDEX55  BitVec[32]))
:extrafuns ((gtINDEX56  BitVec[32]))
:extrafuns ((gtINDEX53  BitVec[32]))
:extrafuns ((gtINDEX54  BitVec[32]))
:extrafuns ((gtINDEX51  BitVec[32]))
:extrafuns ((gtINDEX52  BitVec[32]))
:extrafuns ((gtINDEX50  BitVec[32]))
:extrafuns ((gtINDEX49  BitVec[32]))
:extrafuns ((gtINDEX48  BitVec[32]))
:extrafuns ((gtINDEX47  BitVec[32]))
:extrafuns ((gtINDEX46  BitVec[32]))
:extrafuns ((gtINDEX45  BitVec[32]))
:extrafuns ((gtINDEX44  BitVec[32]))
:extrafuns ((gtINDEX42  BitVec[32]))
:extrafuns ((gtINDEX43  BitVec[32]))
:extrafuns ((gtINDEX40  BitVec[32]))
:extrafuns ((gtINDEX41  BitVec[32]))
:extrafuns ((gtINDEX38  BitVec[32]))
:extrafuns ((gtINDEX39  BitVec[32]))
:extrafuns ((gtINDEX36  BitVec[32]))
:extrafuns ((gtINDEX37  BitVec[32]))
:extrafuns ((gtINDEX34  BitVec[32]))
:extrafuns ((gtINDEX35  BitVec[32]))
:extrafuns ((gtINDEX33  BitVec[32]))
:extrafuns ((gtINDEX31  BitVec[32]))
:extrafuns ((gtINDEX32  BitVec[32]))
:extrafuns ((gtINDEX29  BitVec[32]))
:extrafuns ((gtINDEX30  BitVec[32]))
:extrafuns ((gtINDEX27  BitVec[32]))
:extrafuns ((gtINDEX28  BitVec[32]))
:extrafuns ((gtINDEX26  BitVec[32]))
:extrafuns ((gtINDEX24  BitVec[32]))
:extrafuns ((gtINDEX25  BitVec[32]))
:extrafuns ((gtINDEX22  BitVec[32]))
:extrafuns ((gtINDEX23  BitVec[32]))
:extrafuns ((gtINDEX20  BitVec[32]))
:extrafuns ((gtINDEX21  BitVec[32]))
:extrafuns ((gtINDEX19  BitVec[32]))
:extrafuns ((gtINDEX17  BitVec[32]))
:extrafuns ((gtINDEX18  BitVec[32]))
:extrafuns ((gtINDEX15  BitVec[32]))
:extrafuns ((gtINDEX16  BitVec[32]))
:extrafuns ((gtINDEX14  BitVec[32]))
:extrafuns ((gtINDEX13  BitVec[32]))
:extrafuns ((gtINDEX11  BitVec[32]))
:extrafuns ((gtINDEX12  BitVec[32]))
:extrafuns ((gtINDEX9  BitVec[32]))
:extrafuns ((gtINDEX10  BitVec[32]))
:extrafuns ((gtINDEX7  BitVec[32]))
:extrafuns ((gtINDEX8  BitVec[32]))
:extrafuns ((gtINDEX6  BitVec[32]))
:extrafuns ((gtINDEX5  BitVec[32]))
:extrafuns ((gtINDEX4  BitVec[32]))
:extrafuns ((gtINDEX3  BitVec[32]))
:extrafuns ((gtINDEX2  BitVec[32]))
:extrafuns ((gtINDEX1  BitVec[32]))
:extrafuns ((gtINDEX0  BitVec[32]))
:extrafuns ((gtFIELD__is_Eng__gtAGG____anonstruct_bitsForTID0_5_1_  Array[32:1]))
:extrafuns ((gtFIELD__is_Eng__gtAGG____anonstruct_bitsForTID0_5_2_  Array[32:1]))
:extrafuns ((sf_previousEvent_1_  BitVec[32]))
:extrafuns ((sfEvent__2_  BitVec[32]))
:extrafuns ((gtFIELD__is_Eng__gtAGG____anonstruct_bitsForTID0_5  Array[32:1]))
:extrafuns ((gtFIELD__sent__gtAGG____anonstruct_D_Work_4_1_  Array[32:32]))
:extrafuns ((gtFIELD__sent__gtAGG____anonstruct_D_Work_4_2_  Array[32:32]))
:extrafuns ((gtFIELD__is_active_Eng__gtAGG____anonstruct_bitsForTID0_5  Array[32:1]))
:extrafuns ((gtFIELD__temporalCounter_i5__gtAGG____anonstruct_D_Work_4  Array[32:32]))
:extrafuns ((gtFIELD__temporalCounter_i5__gtAGG____anonstruct_D_Work_4_1_  Array[32:32]))
:extrafuns ((gtFIELD__is_PURI__gtAGG____anonstruct_bitsForTID0_5  Array[32:2]))
:extrafuns ((gtFIELD__is_PURI__gtAGG____anonstruct_bitsForTID0_5_1_  Array[32:2]))
:extrafuns ((gtFIELD__URIex__gtAGG____anonstruct_bitsForTID0_5  Array[32:1]))
:extrafuns ((gtFIELD__URIex__gtAGG____anonstruct_bitsForTID0_5_1_  Array[32:1]))
:extrafuns ((gtFIELD__sh_rst__gtAGG____anonstruct_D_Work_4  Array[32:32]))
:extrafuns ((gtFIELD__sh_rst__gtAGG____anonstruct_D_Work_4_1_  Array[32:32]))
:extrafuns ((gtFIELD__n_t_a__gtAGG____anonstruct_D_Work_4  Array[32:32]))
:extrafuns ((gtFIELD__n_t_a__gtAGG____anonstruct_D_Work_4_1_  Array[32:32]))
:extrafuns ((sfEvent__1_  BitVec[32]))
:extrafuns ((gtFIELD__is_active_PURI__gtAGG____anonstruct_bitsForTID0_5  Array[32:1]))
:extrafuns ((gtFIELD__is_PVRP__gtAGG____anonstruct_bitsForTID0_5  Array[32:2]))
:extrafuns ((gtFIELD__is_active_PVRP__gtAGG____anonstruct_bitsForTID0_5  Array[32:1]))
:extrafuns ((gtFIELD__is_PPVARP__gtAGG____anonstruct_bitsForTID0_5  Array[32:2]))
:extrafuns ((gtFIELD__is_active_PPVARP__gtAGG____anonstruct_bitsForTID0_5  Array[32:1]))
:extrafuns ((gtFIELD__temporalCounter_i2__gtAGG____anonstruct_D_Work_4  Array[32:32]))
:extrafuns ((gtFIELD__temporalCounter_i2__gtAGG____anonstruct_D_Work_4_1_  Array[32:32]))
:extrafuns ((gtFIELD__is_PLRI__gtAGG____anonstruct_bitsForTID0_5  Array[32:2]))
:extrafuns ((gtFIELD__is_PLRI__gtAGG____anonstruct_bitsForTID0_5_1_  Array[32:2]))
:extrafuns ((gtFIELD__n_t_n__gtAGG____anonstruct_D_Work_4  Array[32:32]))
:extrafuns ((gtFIELD__n_t_n__gtAGG____anonstruct_D_Work_4_1_  Array[32:32]))
:extrafuns ((gtFIELD__is_active_PLRI__gtAGG____anonstruct_bitsForTID0_5  Array[32:1]))
:extrafuns ((gtFIELD__is_PAVI__gtAGG____anonstruct_bitsForTID0_5  Array[32:3]))
:extrafuns ((gtFIELD__is_active_PAVI__gtAGG____anonstruct_bitsForTID0_5  Array[32:1]))
:extrafuns ((sfEvent_  BitVec[32]))
:extrafuns ((gtFIELD__sent__gtAGG____anonstruct_D_Work_4  Array[32:32]))
:extrafuns ((gtFIELD__temporalCounter_i4__gtAGG____anonstruct_D_Work_4  Array[32:32]))
:extrafuns ((gtFIELD__temporalCounter_i3__gtAGG____anonstruct_D_Work_4  Array[32:32]))
:extrafuns ((gtFIELD__temporalCounter_i3__gtAGG____anonstruct_D_Work_4_1_  Array[32:32]))
:extrafuns ((gtFIELD__temporalCounter_i1__gtAGG____anonstruct_D_Work_4  Array[32:32]))
:extrapreds ((constraint195 ))
:extrapreds ((constraint194 ))
:extrapreds ((constraint193 ))
:extrapreds ((constraint192 ))
:extrapreds ((constraint191 ))
:extrapreds ((constraint190 ))
:extrapreds ((constraint189 ))
:extrapreds ((constraint188 ))
:extrapreds ((constraint187 ))
:extrapreds ((constraint186 ))
:extrapreds ((constraint185 ))
:extrapreds ((constraint184 ))
:extrapreds ((constraint183 ))
:extrapreds ((constraint182 ))
:extrapreds ((constraint181 ))
:extrapreds ((constraint180 ))
:extrapreds ((constraint179 ))
:extrapreds ((constraint178 ))
:extrapreds ((constraint177 ))
:extrapreds ((constraint176 ))
:extrapreds ((constraint175 ))
:extrapreds ((constraint174 ))
:extrapreds ((constraint173 ))
:extrapreds ((constraint172 ))
:extrapreds ((constraint171 ))
:extrapreds ((constraint170 ))
:extrapreds ((constraint169 ))
:extrapreds ((constraint168 ))
:extrapreds ((constraint167 ))
:extrapreds ((constraint166 ))
:extrapreds ((constraint165 ))
:extrapreds ((constraint164 ))
:extrapreds ((constraint163 ))
:extrapreds ((constraint162 ))
:extrapreds ((constraint161 ))
:extrapreds ((constraint160 ))
:extrapreds ((constraint159 ))
:extrapreds ((constraint158 ))
:extrapreds ((constraint157 ))
:extrapreds ((constraint156 ))
:extrapreds ((constraint155 ))
:extrapreds ((constraint154 ))
:extrapreds ((constraint153 ))
:extrapreds ((constraint152 ))
:extrapreds ((constraint151 ))
:extrapreds ((constraint150 ))
:extrapreds ((constraint149 ))
:extrapreds ((constraint148 ))
:extrapreds ((constraint147 ))
:extrapreds ((constraint146 ))
:extrapreds ((constraint145 ))
:extrapreds ((constraint144 ))
:extrapreds ((constraint143 ))
:extrapreds ((constraint142 ))
:extrapreds ((constraint141 ))
:extrapreds ((constraint140 ))
:extrapreds ((constraint139 ))
:extrapreds ((constraint138 ))
:extrapreds ((constraint137 ))
:extrapreds ((constraint136 ))
:extrapreds ((constraint135 ))
:extrapreds ((constraint134 ))
:extrapreds ((constraint133 ))
:extrapreds ((constraint132 ))
:extrapreds ((constraint131 ))
:extrapreds ((constraint130 ))
:extrapreds ((constraint129 ))
:extrapreds ((constraint128 ))
:extrapreds ((constraint127 ))
:extrapreds ((constraint126 ))
:extrapreds ((constraint125 ))
:extrapreds ((constraint124 ))
:extrapreds ((constraint123 ))
:extrapreds ((constraint122 ))
:extrapreds ((constraint121 ))
:extrapreds ((constraint120 ))
:extrapreds ((constraint119 ))
:extrapreds ((constraint118 ))
:extrapreds ((constraint117 ))
:extrapreds ((constraint116 ))
:extrapreds ((constraint115 ))
:extrapreds ((constraint114 ))
:extrapreds ((constraint113 ))
:extrapreds ((constraint112 ))
:extrapreds ((constraint111 ))
:extrapreds ((constraint110 ))
:extrapreds ((constraint109 ))
:extrapreds ((constraint108 ))
:extrapreds ((constraint107 ))
:extrapreds ((constraint106 ))
:extrapreds ((constraint105 ))
:extrapreds ((constraint104 ))
:extrapreds ((constraint103 ))
:extrapreds ((constraint102 ))
:extrapreds ((constraint101 ))
:extrapreds ((constraint100 ))
:extrapreds ((constraint99 ))
:extrapreds ((constraint98 ))
:extrapreds ((constraint97 ))
:extrapreds ((constraint96 ))
:extrapreds ((constraint95 ))
:extrapreds ((constraint94 ))
:extrapreds ((constraint93 ))
:extrapreds ((constraint92 ))
:extrapreds ((constraint91 ))
:extrapreds ((constraint90 ))
:extrapreds ((constraint89 ))
:extrapreds ((constraint88 ))
:extrapreds ((constraint87 ))
:extrapreds ((constraint86 ))
:extrapreds ((constraint85 ))
:extrapreds ((constraint84 ))
:extrapreds ((constraint83 ))
:extrapreds ((constraint82 ))
:extrapreds ((constraint81 ))
:extrapreds ((constraint80 ))
:extrapreds ((constraint79 ))
:extrapreds ((constraint78 ))
:extrapreds ((constraint77 ))
:extrapreds ((constraint76 ))
:extrapreds ((constraint75 ))
:extrapreds ((constraint74 ))
:extrapreds ((constraint73 ))
:extrapreds ((constraint72 ))
:extrapreds ((constraint71 ))
:extrapreds ((constraint70 ))
:extrapreds ((constraint69 ))
:extrapreds ((constraint68 ))
:extrapreds ((constraint67 ))
:extrapreds ((constraint66 ))
:extrapreds ((constraint65 ))
:extrapreds ((constraint64 ))
:extrapreds ((constraint63 ))
:extrapreds ((constraint62 ))
:extrapreds ((constraint61 ))
:extrapreds ((constraint60 ))
:extrapreds ((constraint59 ))
:extrapreds ((constraint58 ))
:extrapreds ((constraint57 ))
:extrapreds ((constraint56 ))
:extrapreds ((constraint55 ))
:extrapreds ((constraint54 ))
:extrapreds ((constraint53 ))
:extrapreds ((constraint52 ))
:extrapreds ((constraint51 ))
:extrapreds ((constraint50 ))
:extrapreds ((constraint49 ))
:extrapreds ((constraint48 ))
:extrapreds ((constraint47 ))
:extrapreds ((constraint46 ))
:extrapreds ((constraint45 ))
:extrapreds ((constraint44 ))
:extrapreds ((constraint43 ))
:extrapreds ((constraint42 ))
:extrapreds ((constraint41 ))
:extrapreds ((constraint40 ))
:extrapreds ((constraint39 ))
:extrapreds ((constraint38 ))
:extrapreds ((constraint37 ))
:extrapreds ((constraint36 ))
:extrapreds ((constraint35 ))
:extrapreds ((constraint34 ))
:extrapreds ((constraint33 ))
:extrapreds ((constraint32 ))
:extrapreds ((constraint31 ))
:extrapreds ((constraint30 ))
:extrapreds ((constraint29 ))
:extrapreds ((constraint28 ))
:extrapreds ((constraint27 ))
:extrapreds ((constraint26 ))
:extrapreds ((constraint25 ))
:extrapreds ((constraint24 ))
:extrapreds ((constraint23 ))
:extrapreds ((constraint22 ))
:extrapreds ((constraint21 ))
:extrapreds ((constraint20 ))
:extrapreds ((constraint19 ))
:extrapreds ((constraint18 ))
:extrapreds ((constraint17 ))
:extrapreds ((constraint16 ))
:extrapreds ((constraint15 ))
:extrapreds ((constraint14 ))
:extrapreds ((constraint13 ))
:extrapreds ((constraint12 ))
:extrapreds ((constraint11 ))
:extrapreds ((constraint10 ))
:extrapreds ((constraint9 ))
:extrapreds ((constraint8 ))
:extrapreds ((constraint7 ))
:extrapreds ((constraint6 ))
:extrapreds ((constraint5 ))
:extrapreds ((constraint4 ))
:extrapreds ((constraint3 ))
:extrapreds ((constraint2 ))
:extrapreds ((constraint1 ))
:extrapreds ((constraint0 ))
:formula
(flet ($x963 (and constraint0 constraint1 constraint2 constraint3 constraint4 constraint5 constraint6 constraint7 constraint8 constraint9 constraint10 constraint11 constraint12 constraint13 constraint14 constraint15 constraint16 constraint17 constraint18 constraint19 constraint20 constraint21 constraint22 constraint23 constraint24 constraint25 constraint26 constraint27 constraint28 constraint29 constraint30 constraint31 constraint32 constraint33 constraint34 constraint35 constraint36 constraint37 constraint38 constraint39 constraint40 constraint41 constraint42 constraint43 constraint44 constraint45 constraint46 constraint47 constraint48 constraint49 constraint50 constraint51 constraint52 constraint53 constraint54 constraint55 constraint56 constraint57 constraint58 constraint59 constraint60 constraint61 constraint62 constraint63 constraint64 constraint65 constraint66 constraint67 constraint68 constraint69 constraint70 constraint71 constraint72 constraint73 constraint74 constraint75 constraint76 constraint77 constraint78 constraint79 constraint80 constraint81 constraint82 constraint83 constraint84 constraint85 constraint86 constraint87 constraint88 constraint89 constraint90 constraint91 constraint92 constraint93 constraint94 constraint95 constraint96 constraint97 constraint98 constraint99 constraint100 constraint101 constraint102 constraint103 constraint104 constraint105 constraint106 constraint107 constraint108 constraint109 constraint110 constraint111 constraint112 constraint113 constraint114 constraint115 constraint116 constraint117 constraint118 constraint119 constraint120 constraint121 constraint122 constraint123 constraint124 constraint125 constraint126 constraint127 constraint128 constraint129 constraint130 constraint131 constraint132 constraint133 constraint134 constraint135 constraint136 constraint137 constraint138 constraint139 constraint140 constraint141 constraint142 constraint143 constraint144 constraint145 constraint146 constraint147 constraint148 constraint149 constraint150 constraint151 constraint152 constraint153 constraint154 constraint155 constraint156 constraint157 constraint158 constraint159 constraint160 constraint161 constraint162 constraint163 constraint164 constraint165 constraint166 constraint167 constraint168 constraint169 constraint170 constraint171 constraint172 constraint173 constraint174 constraint175 constraint176 constraint177 constraint178 constraint179 constraint180 constraint181 constraint182 constraint183 constraint184 constraint185 constraint186 constraint187 constraint188 constraint189 constraint190 constraint191 constraint192 constraint193 constraint194 constraint195))
(let (?x568 (select gtFIELD__bitsForTID0__gtAGG____anonstruct_D_Work_4 gtINDEX109))
(let (?x564 (select gtFIELD__bitsForTID0__gtAGG____anonstruct_D_Work_4 gtINDEX107))
(let (?x560 (select gtFIELD__bitsForTID0__gtAGG____anonstruct_D_Work_4 gtINDEX105))
(let (?x556 (select gtFIELD__bitsForTID0__gtAGG____anonstruct_D_Work_4 gtINDEX103))
(flet ($x549 (= gtINDEX98 (select gtFIELD__bitsForTID0__gtAGG____anonstruct_D_Work_4 gtINDEX97)))
(flet ($x545 (= gtINDEX96 (select gtFIELD__bitsForTID0__gtAGG____anonstruct_D_Work_4 gtINDEX95)))
(flet ($x540 (= gtINDEX93 (select gtFIELD__bitsForTID0__gtAGG____anonstruct_D_Work_4 gtINDEX92)))
(flet ($x536 (= gtINDEX91 (select gtFIELD__bitsForTID0__gtAGG____anonstruct_D_Work_4 gtINDEX90)))
(flet ($x530 (= gtINDEX87 (select gtFIELD__bitsForTID0__gtAGG____anonstruct_D_Work_4 gtINDEX86)))
(flet ($x526 (= gtINDEX85 (select gtFIELD__bitsForTID0__gtAGG____anonstruct_D_Work_4 gtINDEX84)))
(flet ($x522 (= gtINDEX83 (select gtFIELD__bitsForTID0__gtAGG____anonstruct_D_Work_4 gtINDEX82)))
(flet ($x517 (= gtINDEX80 (select gtFIELD__bitsForTID0__gtAGG____anonstruct_D_Work_4 gtINDEX79)))
(flet ($x513 (= gtINDEX78 (select gtFIELD__bitsForTID0__gtAGG____anonstruct_D_Work_4 gtINDEX77)))
(flet ($x509 (= gtINDEX76 (select gtFIELD__bitsForTID0__gtAGG____anonstruct_D_Work_4 gtINDEX75)))
(flet ($x504 (= gtINDEX73 (select gtFIELD__bitsForTID0__gtAGG____anonstruct_D_Work_4 gtINDEX72)))
(flet ($x500 (= gtINDEX71 (select gtFIELD__bitsForTID0__gtAGG____anonstruct_D_Work_4 gtINDEX70)))
(flet ($x496 (= gtINDEX69 (select gtFIELD__bitsForTID0__gtAGG____anonstruct_D_Work_4 gtINDEX68)))
(flet ($x491 (= gtINDEX66 (select gtFIELD__bitsForTID0__gtAGG____anonstruct_D_Work_4 gtINDEX65)))
(flet ($x485 (= gtINDEX62 (select gtFIELD__bitsForTID0__gtAGG____anonstruct_D_Work_4 gtINDEX61)))
(flet ($x481 (= gtINDEX60 (select gtFIELD__bitsForTID0__gtAGG____anonstruct_D_Work_4 gtINDEX59)))
(flet ($x475 (= gtINDEX56 (select gtFIELD__bitsForTID0__gtAGG____anonstruct_D_Work_4 gtINDEX55)))
(flet ($x471 (= gtINDEX54 (select gtFIELD__bitsForTID0__gtAGG____anonstruct_D_Work_4 gtINDEX53)))
(flet ($x467 (= gtINDEX52 (select gtFIELD__bitsForTID0__gtAGG____anonstruct_D_Work_4 gtINDEX51)))
(flet ($x456 (= gtINDEX43 (select gtFIELD__bitsForTID0__gtAGG____anonstruct_D_Work_4 gtINDEX42)))
(flet ($x452 (= gtINDEX41 (select gtFIELD__bitsForTID0__gtAGG____anonstruct_D_Work_4 gtINDEX40)))
(flet ($x448 (= gtINDEX39 (select gtFIELD__bitsForTID0__gtAGG____anonstruct_D_Work_4 gtINDEX38)))
(flet ($x444 (= gtINDEX37 (select gtFIELD__bitsForTID0__gtAGG____anonstruct_D_Work_4 gtINDEX36)))
(flet ($x440 (= gtINDEX35 (select gtFIELD__bitsForTID0__gtAGG____anonstruct_D_Work_4 gtINDEX34)))
(flet ($x435 (= gtINDEX32 (select gtFIELD__bitsForTID0__gtAGG____anonstruct_D_Work_4 gtINDEX31)))
(flet ($x431 (= gtINDEX30 (select gtFIELD__bitsForTID0__gtAGG____anonstruct_D_Work_4 gtINDEX29)))
(flet ($x427 (= gtINDEX28 (select gtFIELD__bitsForTID0__gtAGG____anonstruct_D_Work_4 gtINDEX27)))
(flet ($x422 (= gtINDEX25 (select gtFIELD__bitsForTID0__gtAGG____anonstruct_D_Work_4 gtINDEX24)))
(flet ($x418 (= gtINDEX23 (select gtFIELD__bitsForTID0__gtAGG____anonstruct_D_Work_4 gtINDEX22)))
(flet ($x414 (= gtINDEX21 (select gtFIELD__bitsForTID0__gtAGG____anonstruct_D_Work_4 gtINDEX20)))
(flet ($x409 (= gtINDEX18 (select gtFIELD__bitsForTID0__gtAGG____anonstruct_D_Work_4 gtINDEX17)))
(flet ($x405 (= gtINDEX16 (select gtFIELD__bitsForTID0__gtAGG____anonstruct_D_Work_4 gtINDEX15)))
(flet ($x399 (= gtINDEX12 (select gtFIELD__bitsForTID0__gtAGG____anonstruct_D_Work_4 gtINDEX11)))
(flet ($x395 (= gtINDEX10 (select gtFIELD__bitsForTID0__gtAGG____anonstruct_D_Work_4 gtINDEX9)))
(flet ($x391 (= gtINDEX8 (select gtFIELD__bitsForTID0__gtAGG____anonstruct_D_Work_4 gtINDEX7)))
(let (?x368 (extract[0:0] bv1[32]))
(let (?x378 (store gtFIELD__is_Eng__gtAGG____anonstruct_bitsForTID0_5_1_ gtINDEX110 ?x368))
(flet ($x739 (iff constraint84 (= gtFIELD__is_Eng__gtAGG____anonstruct_bitsForTID0_5_2_ ?x378)))
(let (?x374 (select gtFIELD__is_Eng__gtAGG____anonstruct_bitsForTID0_5_1_ gtINDEX108))
(let (?x369 (store gtFIELD__is_Eng__gtAGG____anonstruct_bitsForTID0_5 gtINDEX106 ?x368))
(flet ($x733 (iff constraint81 (= gtFIELD__is_Eng__gtAGG____anonstruct_bitsForTID0_5_1_ ?x369)))
(let (?x364 (select gtFIELD__is_Eng__gtAGG____anonstruct_bitsForTID0_5 gtINDEX104))
(let (?x361 (store gtFIELD__sent__gtAGG____anonstruct_D_Work_4_1_ gtINDEX102 bv0[32]))
(flet ($x729 (iff constraint79 (= gtFIELD__sent__gtAGG____anonstruct_D_Work_4_2_ ?x361)))
(let (?x204 (bvmul bv4294967295[32] bv1[32]))
(flet ($x359 (= (select gtFIELD__sent__gtAGG____anonstruct_D_Work_4_1_ gtINDEX101) ?x204))
(flet ($x355 (= (select gtFIELD__sent__gtAGG____anonstruct_D_Work_4_1_ gtINDEX100) bv9[32]))
(flet ($x351 (= (select gtFIELD__sent__gtAGG____anonstruct_D_Work_4_1_ gtINDEX99) bv4[32]))
(let (?x347 (zero_extend[31] (select gtFIELD__is_Eng__gtAGG____anonstruct_bitsForTID0_5 gtINDEX98)))
(let (?x341 (select gtFIELD__is_active_Eng__gtAGG____anonstruct_bitsForTID0_5 gtINDEX96))
(let (?x338 (store gtFIELD__temporalCounter_i5__gtAGG____anonstruct_D_Work_4 gtINDEX94 bv0[32]))
(flet ($x717 (iff constraint73 (= gtFIELD__temporalCounter_i5__gtAGG____anonstruct_D_Work_4_1_ ?x338)))
(let (?x268 (extract[1:0] bv1[32]))
(let (?x335 (store gtFIELD__is_PURI__gtAGG____anonstruct_bitsForTID0_5 gtINDEX93 ?x268))
(flet ($x715 (iff constraint72 (= gtFIELD__is_PURI__gtAGG____anonstruct_bitsForTID0_5_1_ ?x335)))
(let (?x332 (store gtFIELD__URIex__gtAGG____anonstruct_bitsForTID0_5 gtINDEX91 (extract[0:0] bv0[32])))
(flet ($x713 (iff constraint71 (= gtFIELD__URIex__gtAGG____anonstruct_bitsForTID0_5_1_ ?x332)))
(flet ($x329 (= gtFIELD__sh_rst__gtAGG____anonstruct_D_Work_4_1_ (store gtFIELD__sh_rst__gtAGG____anonstruct_D_Work_4 gtINDEX89 bv1[32])))
(flet ($x326 (= gtFIELD__n_t_a__gtAGG____anonstruct_D_Work_4_1_ (store gtFIELD__n_t_a__gtAGG____anonstruct_D_Work_4 gtINDEX88 bv0[32])))
(let (?x321 (select gtFIELD__is_PURI__gtAGG____anonstruct_bitsForTID0_5 gtINDEX87))
(let (?x316 (select gtFIELD__is_PURI__gtAGG____anonstruct_bitsForTID0_5 gtINDEX85))
(let (?x311 (select gtFIELD__is_active_PURI__gtAGG____anonstruct_bitsForTID0_5 gtINDEX83))
(flet ($x308 (= (select gtFIELD__sent__gtAGG____anonstruct_D_Work_4_1_ gtINDEX81) bv0[32]))
(let (?x303 (select gtFIELD__is_PVRP__gtAGG____anonstruct_bitsForTID0_5 gtINDEX80))
(let (?x298 (select gtFIELD__is_PVRP__gtAGG____anonstruct_bitsForTID0_5 gtINDEX78))
(let (?x293 (select gtFIELD__is_active_PVRP__gtAGG____anonstruct_bitsForTID0_5 gtINDEX76))
(flet ($x290 (= (select gtFIELD__sent__gtAGG____anonstruct_D_Work_4_1_ gtINDEX74) bv0[32]))
(let (?x285 (select gtFIELD__is_PPVARP__gtAGG____anonstruct_bitsForTID0_5 gtINDEX73))
(let (?x280 (select gtFIELD__is_PPVARP__gtAGG____anonstruct_bitsForTID0_5 gtINDEX71))
(let (?x275 (select gtFIELD__is_active_PPVARP__gtAGG____anonstruct_bitsForTID0_5 gtINDEX69))
(let (?x272 (store gtFIELD__temporalCounter_i2__gtAGG____anonstruct_D_Work_4 gtINDEX67 bv0[32]))
(flet ($x683 (iff constraint56 (= gtFIELD__temporalCounter_i2__gtAGG____anonstruct_D_Work_4_1_ ?x272)))
(let (?x269 (store gtFIELD__is_PLRI__gtAGG____anonstruct_bitsForTID0_5 gtINDEX66 ?x268))
(flet ($x681 (iff constraint55 (= gtFIELD__is_PLRI__gtAGG____anonstruct_bitsForTID0_5_1_ ?x269)))
(flet ($x266 (= gtFIELD__n_t_n__gtAGG____anonstruct_D_Work_4_1_ (store gtFIELD__n_t_n__gtAGG____anonstruct_D_Work_4 gtINDEX64 bv0[32])))
(flet ($x262 (= (select gtFIELD__sent__gtAGG____anonstruct_D_Work_4_1_ gtINDEX63) bv0[32]))
(let (?x257 (select gtFIELD__is_PLRI__gtAGG____anonstruct_bitsForTID0_5 gtINDEX62))
(let (?x252 (select gtFIELD__is_active_PLRI__gtAGG____anonstruct_bitsForTID0_5 gtINDEX60))
(flet ($x247 (= (select gtFIELD__sent__gtAGG____anonstruct_D_Work_4_1_ gtINDEX58) bv0[32]))
(flet ($x243 (= (select gtFIELD__sent__gtAGG____anonstruct_D_Work_4_1_ gtINDEX57) bv0[32]))
(let (?x238 (select gtFIELD__is_PAVI__gtAGG____anonstruct_bitsForTID0_5 gtINDEX56))
(let (?x233 (select gtFIELD__is_PAVI__gtAGG____anonstruct_bitsForTID0_5 gtINDEX54))
(let (?x228 (select gtFIELD__is_active_PAVI__gtAGG____anonstruct_bitsForTID0_5 gtINDEX52))
(flet ($x220 (= gtFIELD__sent__gtAGG____anonstruct_D_Work_4_1_ (store gtFIELD__sent__gtAGG____anonstruct_D_Work_4 gtINDEX50 ?x204)))
(flet ($x217 (= (select gtFIELD__sent__gtAGG____anonstruct_D_Work_4 gtINDEX49) bv3[32]))
(flet ($x213 (= (select gtFIELD__sent__gtAGG____anonstruct_D_Work_4 gtINDEX48) bv2[32]))
(flet ($x209 (= (select gtFIELD__sent__gtAGG____anonstruct_D_Work_4 gtINDEX47) bv1[32]))
(flet ($x205 (= (select gtFIELD__sent__gtAGG____anonstruct_D_Work_4 gtINDEX46) ?x204))
(flet ($x200 (= (select gtFIELD__sent__gtAGG____anonstruct_D_Work_4 gtINDEX45) bv9[32]))
(flet ($x195 (= (select gtFIELD__sent__gtAGG____anonstruct_D_Work_4 gtINDEX44) bv4[32]))
(let (?x191 (zero_extend[31] (select gtFIELD__is_Eng__gtAGG____anonstruct_bitsForTID0_5 gtINDEX43)))
(let (?x185 (select gtFIELD__is_active_Eng__gtAGG____anonstruct_bitsForTID0_5 gtINDEX41))
(let (?x181 (select gtFIELD__is_PURI__gtAGG____anonstruct_bitsForTID0_5 gtINDEX39))
(let (?x176 (select gtFIELD__is_PURI__gtAGG____anonstruct_bitsForTID0_5 gtINDEX37))
(let (?x171 (select gtFIELD__is_active_PURI__gtAGG____anonstruct_bitsForTID0_5 gtINDEX35))
(flet ($x168 (= (select gtFIELD__sent__gtAGG____anonstruct_D_Work_4 gtINDEX33) bv0[32]))
(let (?x163 (select gtFIELD__is_PVRP__gtAGG____anonstruct_bitsForTID0_5 gtINDEX32))
(let (?x158 (select gtFIELD__is_PVRP__gtAGG____anonstruct_bitsForTID0_5 gtINDEX30))
(let (?x153 (select gtFIELD__is_active_PVRP__gtAGG____anonstruct_bitsForTID0_5 gtINDEX28))
(flet ($x150 (= (select gtFIELD__sent__gtAGG____anonstruct_D_Work_4 gtINDEX26) bv0[32]))
(let (?x145 (select gtFIELD__is_PPVARP__gtAGG____anonstruct_bitsForTID0_5 gtINDEX25))
(let (?x140 (select gtFIELD__is_PPVARP__gtAGG____anonstruct_bitsForTID0_5 gtINDEX23))
(let (?x135 (select gtFIELD__is_active_PPVARP__gtAGG____anonstruct_bitsForTID0_5 gtINDEX21))
(flet ($x126 (= (select gtFIELD__sent__gtAGG____anonstruct_D_Work_4 gtINDEX19) bv0[32]))
(let (?x121 (select gtFIELD__is_PLRI__gtAGG____anonstruct_bitsForTID0_5 gtINDEX18))
(let (?x116 (select gtFIELD__is_active_PLRI__gtAGG____anonstruct_bitsForTID0_5 gtINDEX16))
(flet ($x110 (= (select gtFIELD__sent__gtAGG____anonstruct_D_Work_4 gtINDEX14) bv0[32]))
(flet ($x106 (= (select gtFIELD__sent__gtAGG____anonstruct_D_Work_4 gtINDEX13) bv0[32]))
(let (?x100 (select gtFIELD__is_PAVI__gtAGG____anonstruct_bitsForTID0_5 gtINDEX12))
(let (?x95 (select gtFIELD__is_PAVI__gtAGG____anonstruct_bitsForTID0_5 gtINDEX10))
(let (?x89 (select gtFIELD__is_active_PAVI__gtAGG____anonstruct_bitsForTID0_5 gtINDEX8))
(let (?x85 (select gtFIELD__temporalCounter_i5__gtAGG____anonstruct_D_Work_4 gtINDEX6))
(let (?x81 (select gtFIELD__temporalCounter_i4__gtAGG____anonstruct_D_Work_4 gtINDEX5))
(let (?x75 (select gtFIELD__temporalCounter_i3__gtAGG____anonstruct_D_Work_4 gtINDEX3))
(let (?x78 (store gtFIELD__temporalCounter_i3__gtAGG____anonstruct_D_Work_4 gtINDEX4 (bvadd ?x75 bv1[32])))
(flet ($x579 (iff constraint4 (= gtFIELD__temporalCounter_i3__gtAGG____anonstruct_D_Work_4_1_ ?x78)))
(let (?x71 (select gtFIELD__temporalCounter_i3__gtAGG____anonstruct_D_Work_4 gtINDEX2))
(let (?x67 (select gtFIELD__temporalCounter_i2__gtAGG____anonstruct_D_Work_4 gtINDEX1))
(let (?x62 (select gtFIELD__temporalCounter_i1__gtAGG____anonstruct_D_Work_4 gtINDEX0))
(flet ($x962 (and (iff constraint0 (= sfEvent_ bv8[32])) (iff constraint1 (not (bvult ?x62 bv4294967295[32]))) (iff constraint2 (not (bvult ?x67 bv4294967295[32]))) (iff constraint3 (bvult ?x71 bv4294967295[32])) $x579 (iff constraint5 (not (bvult ?x81 bv4294967295[32]))) (iff constraint6 (not (bvult ?x85 bv4294967295[32]))) (iff constraint7 (not (= (zero_extend[31] ?x89) bv0[32]))) (iff constraint8 (not (= (zero_extend[29] ?x95) bv1[32]))) (iff constraint9 (= (zero_extend[29] ?x100) bv2[32])) (iff constraint10 (not $x106)) (iff constraint11 (not $x110)) (iff constraint12 (not (= sfEvent_ bv5[32]))) (iff constraint13 (not (= (zero_extend[31] ?x116) bv0[32]))) (iff constraint14 (= (zero_extend[30] ?x121) bv1[32])) (iff constraint15 (not $x126)) (iff constraint16 (not (= sfEvent_ bv4[32]))) (iff constraint17 (not (= sfEvent_ bv5[32]))) (iff constraint18 (not (= sfEvent_ bv3[32]))) (iff constraint19 (not (= (zero_extend[31] ?x135) bv0[32]))) (iff constraint20 (not (= (zero_extend[30] ?x140) bv1[32]))) (iff constraint21 (= (zero_extend[30] ?x145) bv2[32])) (iff constraint22 (not $x150)) (iff constraint23 (not (= (zero_extend[31] ?x153) bv0[32]))) (iff constraint24 (not (= (zero_extend[30] ?x158) bv1[32]))) (iff constraint25 (= (zero_extend[30] ?x163) bv2[32])) (iff constraint26 (not $x168)) (iff constraint27 (not (= (zero_extend[31] ?x171) bv0[32]))) (iff constraint28 (not (= (zero_extend[30] ?x176) bv1[32]))) (iff constraint29 (= (zero_extend[30] ?x181) bv2[32])) (iff constraint30 (not (= sfEvent_ bv4[32]))) (iff constraint31 (not (= sfEvent_ bv5[32]))) (iff constraint32 (not (= (zero_extend[31] ?x185) bv0[32]))) (iff constraint33 (= ?x191 bv1[32])) (iff constraint34 (not $x195)) (iff constraint35 (not $x200)) (iff constraint36 (not $x205)) (iff constraint37 (not $x209)) (iff constraint38 (not $x213)) (iff constraint39 $x217) (iff constraint40 $x220) (iff constraint41 (= sf_previousEvent_1_ sfEvent_)) (iff constraint42 (= sfEvent__1_ bv4[32])) (iff constraint43 (not (= sfEvent__1_ bv8[32]))) (iff constraint44 (not (= (zero_extend[31] ?x228) bv0[32]))) (iff constraint45 (not (= (zero_extend[29] ?x233) bv1[32]))) (iff constraint46 (= (zero_extend[29] ?x238) bv2[32])) (iff constraint47 (not $x243)) (iff constraint48 (not $x247)) (iff constraint49 (not (= sfEvent__1_ bv5[32]))) (iff constraint50 (not (= (zero_extend[31] ?x252) bv0[32]))) (iff constraint51 (= (zero_extend[30] ?x257) bv1[32])) (iff constraint52 (not $x262)) (iff constraint53 (= sfEvent__1_ bv4[32])) (iff constraint54 $x266) $x681 $x683 (iff constraint57 (not (= (zero_extend[31] ?x275) bv0[32]))) (iff constraint58 (not (= (zero_extend[30] ?x280) bv1[32]))) (iff constraint59 (= (zero_extend[30] ?x285) bv2[32])) (iff constraint60 (not $x290)) (iff constraint61 (not (= (zero_extend[31] ?x293) bv0[32]))) (iff constraint62 (not (= (zero_extend[30] ?x298) bv1[32]))) (iff constraint63 (= (zero_extend[30] ?x303) bv2[32])) (iff constraint64 (not $x308)) (iff constraint65 (not (= (zero_extend[31] ?x311) bv0[32]))) (iff constraint66 (not (= (zero_extend[30] ?x316) bv1[32]))) (iff constraint67 (= (zero_extend[30] ?x321) bv2[32])) (iff constraint68 (= sfEvent__1_ bv4[32])) (iff constraint69 $x326) (iff constraint70 $x329) $x713 $x715 $x717 (iff constraint74 (not (= (zero_extend[31] ?x341) bv0[32]))) (iff constraint75 (= ?x347 bv1[32])) (iff constraint76 (not $x351)) (iff constraint77 (not $x355)) (iff constraint78 $x359) $x729 (iff constraint80 (= (zero_extend[31] ?x364) bv1[32])) $x733 (iff constraint82 (= sfEvent__2_ sf_previousEvent_1_)) (iff constraint83 (= (zero_extend[31] ?x374) bv1[32])) $x739 (iff constraint85 (= gtINDEX0 gtAGG__rtDWork)) (iff constraint86 (= gtINDEX1 gtAGG__rtDWork)) (iff constraint87 (= gtINDEX2 gtAGG__rtDWork)) (iff constraint88 (= gtINDEX3 gtAGG__rtDWork)) (iff constraint89 (= gtINDEX4 gtAGG__rtDWork)) (iff constraint90 (= gtINDEX5 gtAGG__rtDWork)) (iff constraint91 (= gtINDEX6 gtAGG__rtDWork)) (iff constraint92 (= gtINDEX7 gtAGG__rtDWork)) (iff constraint93 $x391) (iff constraint94 (= gtINDEX9 gtAGG__rtDWork)) (iff constraint95 $x395) (iff constraint96 (= gtINDEX11 gtAGG__rtDWork)) (iff constraint97 $x399) (iff constraint98 (= gtINDEX13 gtAGG__rtDWork)) (iff constraint99 (= gtINDEX14 gtAGG__rtDWork)) (iff constraint100 (= gtINDEX15 gtAGG__rtDWork)) (iff constraint101 $x405) (iff constraint102 (= gtINDEX17 gtAGG__rtDWork)) (iff constraint103 $x409) (iff constraint104 (= gtINDEX19 gtAGG__rtDWork)) (iff constraint105 (= gtINDEX20 gtAGG__rtDWork)) (iff constraint106 $x414) (iff constraint107 (= gtINDEX22 gtAGG__rtDWork)) (iff constraint108 $x418) (iff constraint109 (= gtINDEX24 gtAGG__rtDWork)) (iff constraint110 $x422) (iff constraint111 (= gtINDEX26 gtAGG__rtDWork)) (iff constraint112 (= gtINDEX27 gtAGG__rtDWork)) (iff constraint113 $x427) (iff constraint114 (= gtINDEX29 gtAGG__rtDWork)) (iff constraint115 $x431) (iff constraint116 (= gtINDEX31 gtAGG__rtDWork)) (iff constraint117 $x435) (iff constraint118 (= gtINDEX33 gtAGG__rtDWork)) (iff constraint119 (= gtINDEX34 gtAGG__rtDWork)) (iff constraint120 $x440) (iff constraint121 (= gtINDEX36 gtAGG__rtDWork)) (iff constraint122 $x444) (iff constraint123 (= gtINDEX38 gtAGG__rtDWork)) (iff constraint124 $x448) (iff constraint125 (= gtINDEX40 gtAGG__rtDWork)) (iff constraint126 $x452) (iff constraint127 (= gtINDEX42 gtAGG__rtDWork)) (iff constraint128 $x456) (iff constraint129 (= gtINDEX44 gtAGG__rtDWork)) (iff constraint130 (= gtINDEX45 gtAGG__rtDWork)) (iff constraint131 (= gtINDEX46 gtAGG__rtDWork)) (iff constraint132 (= gtINDEX47 gtAGG__rtDWork)) (iff constraint133 (= gtINDEX48 gtAGG__rtDWork)) (iff constraint134 (= gtINDEX49 gtAGG__rtDWork)) (iff constraint135 (= gtINDEX50 gtAGG__rtDWork)) (iff constraint136 (= gtINDEX51 gtAGG__rtDWork)) (iff constraint137 $x467) (iff constraint138 (= gtINDEX53 gtAGG__rtDWork)) (iff constraint139 $x471) (iff constraint140 (= gtINDEX55 gtAGG__rtDWork)) (iff constraint141 $x475) (iff constraint142 (= gtINDEX57 gtAGG__rtDWork)) (iff constraint143 (= gtINDEX58 gtAGG__rtDWork)) (iff constraint144 (= gtINDEX59 gtAGG__rtDWork)) (iff constraint145 $x481) (iff constraint146 (= gtINDEX61 gtAGG__rtDWork)) (iff constraint147 $x485) (iff constraint148 (= gtINDEX63 gtAGG__rtDWork)) (iff constraint149 (= gtINDEX64 gtAGG__rtDWork)) (iff constraint150 (= gtINDEX65 gtAGG__rtDWork)) (iff constraint151 $x491) (iff constraint152 (= gtINDEX67 gtAGG__rtDWork)) (iff constraint153 (= gtINDEX68 gtAGG__rtDWork)) (iff constraint154 $x496) (iff constraint155 (= gtINDEX70 gtAGG__rtDWork)) (iff constraint156 $x500) (iff constraint157 (= gtINDEX72 gtAGG__rtDWork)) (iff constraint158 $x504) (iff constraint159 (= gtINDEX74 gtAGG__rtDWork)) (iff constraint160 (= gtINDEX75 gtAGG__rtDWork)) (iff constraint161 $x509) (iff constraint162 (= gtINDEX77 gtAGG__rtDWork)) (iff constraint163 $x513) (iff constraint164 (= gtINDEX79 gtAGG__rtDWork)) (iff constraint165 $x517) (iff constraint166 (= gtINDEX81 gtAGG__rtDWork)) (iff constraint167 (= gtINDEX82 gtAGG__rtDWork)) (iff constraint168 $x522) (iff constraint169 (= gtINDEX84 gtAGG__rtDWork)) (iff constraint170 $x526) (iff constraint171 (= gtINDEX86 gtAGG__rtDWork)) (iff constraint172 $x530) (iff constraint173 (= gtINDEX88 gtAGG__rtDWork)) (iff constraint174 (= gtINDEX89 gtAGG__rtDWork)) (iff constraint175 (= gtINDEX90 gtAGG__rtDWork)) (iff constraint176 $x536) (iff constraint177 (= gtINDEX92 gtAGG__rtDWork)) (iff constraint178 $x540) (iff constraint179 (= gtINDEX94 gtAGG__rtDWork)) (iff constraint180 (= gtINDEX95 gtAGG__rtDWork)) (iff constraint181 $x545) (iff constraint182 (= gtINDEX97 gtAGG__rtDWork)) (iff constraint183 $x549) (iff constraint184 (= gtINDEX99 gtAGG__rtDWork)) (iff constraint185 (= gtINDEX100 gtAGG__rtDWork)) (iff constraint186 (= gtINDEX101 gtAGG__rtDWork)) (iff constraint187 (= gtINDEX102 gtAGG__rtDWork)) (iff constraint188 (= gtINDEX103 gtAGG__rtDWork)) (iff constraint189 (= gtINDEX104 ?x556)) (iff constraint190 (= gtINDEX105 gtAGG__rtDWork)) (iff constraint191 (= gtINDEX106 ?x560)) (iff constraint192 (= gtINDEX107 gtAGG__rtDWork)) (iff constraint193 (= gtINDEX108 ?x564)) (iff constraint194 (= gtINDEX109 gtAGG__rtDWork)) (iff constraint195 (= gtINDEX110 ?x568))))
(and $x962 $x963))))))))))))))))))))))))))))))))))))))))))))))))))))))))))))))))))))))))))))))))))))))))))))))))))))))))))))))))))))))))))))))
)
